Instance0
Objective;Best_Integer;Best_Bound
4493.1285;8602.7702;4493.1285
4493.1285;7484.5683;4493.1285
CPXPARAM_MIP_Cuts_Implied 0
Instance1
Objective;Best_Integer;Best_Bound
integral;4493.1285;4493.1285
CPXPARAM_MIP_Cuts_Implied 0
Instance2
Objective;Best_Integer;Best_Bound
4551.0296;8602.7702;4551.0296
4551.0296;6986.6525;4552.4190
CPXPARAM_MIP_Cuts_Implied 0
Instance3
Objective;Best_Integer;Best_Bound
integral;5089.3686;5089.3686
CPXPARAM_MIP_Cuts_Implied 0
Instance4
Objective;Best_Integer;Best_Bound
5798.2654;8270.8148;5798.2654
5798.2654;7767.0771;5798.2654
CPXPARAM_MIP_Cuts_Implied 0
Instance5
Objective;Best_Integer;Best_Bound
integral;5798.2654;5798.2654
CPXPARAM_MIP_Cuts_Implied 0
Instance6
Objective;Best_Integer;Best_Bound
5798.2654;8670.4195;5798.2654
5798.2654;8183.1134;5798.2654
CPXPARAM_MIP_Cuts_Implied 0
Instance7
Objective;Best_Integer;Best_Bound
integral;5935.6407;5935.6407
CPXPARAM_MIP_Cuts_Implied 0
Instance8
Objective;Best_Integer;Best_Bound
7125.1247;9144.4107;7125.1247
7125.1247;9144.4107;7125.1247
CPXPARAM_MIP_Cuts_Implied 0
Instance9
Objective;Best_Integer;Best_Bound
integral;7190.6688;7190.6688
CPXPARAM_MIP_Cuts_Implied 0
Instance10
Objective;Best_Integer;Best_Bound
7200.3815;10488.8441;7200.3815
7200.3815;8616.8852;7200.3815
CPXPARAM_MIP_Cuts_Implied 0
Instance11
Objective;Best_Integer;Best_Bound
integral;7566.2609;7566.2609
CPXPARAM_MIP_Cuts_Implied 0
Instance12
Objective;Best_Integer;Best_Bound
5623.8596;7682.8104;5623.8596
5623.8596;7682.8104;5623.8596
CPXPARAM_MIP_Cuts_Implied 0
Instance13
Objective;Best_Integer;Best_Bound
integral;5816.6887;5816.6887
CPXPARAM_MIP_Cuts_Implied 0
Instance14
Objective;Best_Integer;Best_Bound
5623.8596;7682.8104;5623.8596
5623.8596;7524.6096;5623.8596
CPXPARAM_MIP_Cuts_Implied 0
Instance15
Objective;Best_Integer;Best_Bound
integral;6048.6260;6048.6260
CPXPARAM_MIP_Cuts_Implied 0
Instance16
Objective;Best_Integer;Best_Bound
6204.6365;8483.8978;6204.6365
6204.6365;7072.3639;6204.6365
CPXPARAM_MIP_Cuts_Implied 0
Instance17
Objective;Best_Integer;Best_Bound
integral;6303.6967;6303.6967
CPXPARAM_MIP_Cuts_Implied 0
Instance18
Objective;Best_Integer;Best_Bound
6236.8972;8483.8978;6236.8972
6236.8972;7186.5924;6236.8972
CPXPARAM_MIP_Cuts_Implied 0
Instance19
Objective;Best_Integer;Best_Bound
integral;6443.0511;6443.0511
CPXPARAM_MIP_Cuts_Implied 0
Instance20
Objective;Best_Integer;Best_Bound
4118.1255;6541.4998;4118.1255
4118.1255;4654.2661;4118.1255
CPXPARAM_MIP_Cuts_Implied 0
Instance21
Objective;Best_Integer;Best_Bound
integral;4118.1255;4118.1255
CPXPARAM_MIP_Cuts_Implied 0
Instance22
Objective;Best_Integer;Best_Bound
4118.6281;6561.8501;4118.6281
4118.6281;4613.4392;4118.6281
CPXPARAM_MIP_Cuts_Implied 0
Instance23
Objective;Best_Integer;Best_Bound
integral;4118.1255;4118.1255
CPXPARAM_MIP_Cuts_Implied 0
Instance24
Objective;Best_Integer;Best_Bound
5093.9502;6300.8955;5093.9502
5093.9502;5285.5091;5093.9502
CPXPARAM_MIP_Cuts_Implied 0
Instance25
Objective;Best_Integer;Best_Bound
integral;5101.0707;5101.0707
CPXPARAM_MIP_Cuts_Implied 0
Instance26
Objective;Best_Integer;Best_Bound
5099.6969;6326.3054;5099.6969
5099.6969;5723.5618;5099.6969
CPXPARAM_MIP_Cuts_Implied 0
Instance27
Objective;Best_Integer;Best_Bound
5102.0512;7116.0235;5102.0512
CPXPARAM_MIP_Cuts_Implied 0
Instance28
Objective;Best_Integer;Best_Bound
8102.9887;10656.8722;8102.9887
8102.9887;9241.0403;8102.9887
CPXPARAM_MIP_Cuts_Implied 0
Instance29
Objective;Best_Integer;Best_Bound
integral;8102.9887;8102.9887
CPXPARAM_MIP_Cuts_Implied 0
Instance30
Objective;Best_Integer;Best_Bound
8102.9887;10687.4588;8102.9887
8102.9887;8875.9306;8102.9887
CPXPARAM_MIP_Cuts_Implied 0
Instance31
Objective;Best_Integer;Best_Bound
integral;8102.9887;8102.9887
CPXPARAM_MIP_Cuts_Implied 0
Instance32
Objective;Best_Integer;Best_Bound
4523.5692;7594.6640;4523.5692
4523.5692;6647.5559;4523.5692
CPXPARAM_MIP_Cuts_Implied 0
Instance33
Objective;Best_Integer;Best_Bound
integral;4536.2805;4536.2805
CPXPARAM_MIP_Cuts_Implied 0
Instance34
Objective;Best_Integer;Best_Bound
4536.2805;7625.7406;4536.2805
4536.2805;6571.9700;4536.2805
CPXPARAM_MIP_Cuts_Implied 0
Instance35
Objective;Best_Integer;Best_Bound
integral;5672.7423;5672.7423
CPXPARAM_MIP_Cuts_Implied 0
Instance36
Objective;Best_Integer;Best_Bound
5884.9287;8425.2960;5884.9287
5884.9287;6886.9543;5884.9287
CPXPARAM_MIP_Cuts_Implied 0
Instance37
Objective;Best_Integer;Best_Bound
integral;5884.9287;5884.9287
CPXPARAM_MIP_Cuts_Implied 0
Instance38
Objective;Best_Integer;Best_Bound
5884.9287;8425.2960;5884.9287
5884.9287;6886.9543;5884.9287
CPXPARAM_MIP_Cuts_Implied 0
Instance39
Objective;Best_Integer;Best_Bound
integral;5998.5362;5998.5362
CPXPARAM_MIP_Cuts_Implied 0
